% demand
num_movements = 27;
loading_factor = [1150, 1450, 1200, 1050, 1300, 1150, 1150, 850, 1450, 1200, 800, 1450, 1250, 2000, 800, 1700, 1750, 1100, 800, 1550, 1350, 1450, 900, 1250, 900, 850, 950];
pickup_time = [0, 0, 0, 0, 0, 1, 1, 2, 2, 2, 3, 3, 3, 3, 3, 4, 4, 5, 6, 6, 6, 6, 6, 7, 7, 8, 10];
delivery_time = [2, 1, 3, 2, 2, 3, 3, 3, 3, 3, 6, 4, 4, 4, 4, 6, 6, 6, 7, 7, 7, 9, 9, 10, 9, 10, 11];

% transporter definition
total_capacity = 7000;
num_decks = 3;
capacity = [3000, 1000, 3000];

% ways out of decks
num_ways_out = 1;
paths_out = array3d(decks, ways_out, decks, [
% ways out of deck d1
2, 3, 0, 

% ways out of deck d2
3, 0, 0, 

% ways out of deck d3
0, 0, 0,	

]);

